c FILE: myciel6.col
c SOURCE: Michael Trick (trick@cmu.edu)
c DESCRIPTION: Graph based on Mycielski transformation. 
c              Triangle free (clique number 2) but increasing
c              coloring number
p edge 95 755
e 1 2
e 1 4
e 1 7
e 1 9
e 1 13
e 1 15
e 1 18
e 1 20
e 1 25
e 1 27
e 1 30
e 1 32
e 1 36
e 1 38
e 1 41
e 1 43
e 1 49
e 1 51
e 1 54
e 1 56
e 1 60
e 1 62
e 1 65
e 1 67
e 1 72
e 1 74
e 1 77
e 1 79
e 1 83
e 1 85
e 1 88
e 1 90
e 2 3
e 2 6
e 2 8
e 2 12
e 2 14
e 2 17
e 2 19
e 2 24
e 2 26
e 2 29
e 2 31
e 2 35
e 2 37
e 2 40
e 2 42
e 2 48
e 2 50
e 2 53
e 2 55
e 2 59
e 2 61
e 2 64
e 2 66
e 2 71
e 2 73
e 2 76
e 2 78
e 2 82
e 2 84
e 2 87
e 2 89
e 3 5
e 3 7
e 3 10
e 3 13
e 3 16
e 3 18
e 3 21
e 3 25
e 3 28
e 3 30
e 3 33
e 3 36
e 3 39
e 3 41
e 3 44
e 3 49
e 3 52
e 3 54
e 3 57
e 3 60
e 3 63
e 3 65
e 3 68
e 3 72
e 3 75
e 3 77
e 3 80
e 3 83
e 3 86
e 3 88
e 3 91
e 4 5
e 4 6
e 4 10
e 4 12
e 4 16
e 4 17
e 4 21
e 4 24
e 4 28
e 4 29
e 4 33
e 4 35
e 4 39
e 4 40
e 4 44
e 4 48
e 4 52
e 4 53
e 4 57
e 4 59
e 4 63
e 4 64
e 4 68
e 4 71
e 4 75
e 4 76
e 4 80
e 4 82
e 4 86
e 4 87
e 4 91
e 5 8
e 5 9
e 5 14
e 5 15
e 5 19
e 5 20
e 5 26
e 5 27
e 5 31
e 5 32
e 5 37
e 5 38
e 5 42
e 5 43
e 5 50
e 5 51
e 5 55
e 5 56
e 5 61
e 5 62
e 5 66
e 5 67
e 5 73
e 5 74
e 5 78
e 5 79
e 5 84
e 5 85
e 5 89
e 5 90
e 6 11
e 6 13
e 6 15
e 6 22
e 6 25
e 6 27
e 6 34
e 6 36
e 6 38
e 6 45
e 6 49
e 6 51
e 6 58
e 6 60
e 6 62
e 6 69
e 6 72
e 6 74
e 6 81
e 6 83
e 6 85
e 6 92
e 7 11
e 7 12
e 7 14
e 7 22
e 7 24
e 7 26
e 7 34
e 7 35
e 7 37
e 7 45
e 7 48
e 7 50
e 7 58
e 7 59
e 7 61
e 7 69
e 7 71
e 7 73
e 7 81
e 7 82
e 7 84
e 7 92
e 8 11
e 8 13
e 8 16
e 8 22
e 8 25
e 8 28
e 8 34
e 8 36
e 8 39
e 8 45
e 8 49
e 8 52
e 8 58
e 8 60
e 8 63
e 8 69
e 8 72
e 8 75
e 8 81
e 8 83
e 8 86
e 8 92
e 9 11
e 9 12
e 9 16
e 9 22
e 9 24
e 9 28
e 9 34
e 9 35
e 9 39
e 9 45
e 9 48
e 9 52
e 9 58
e 9 59
e 9 63
e 9 69
e 9 71
e 9 75
e 9 81
e 9 82
e 9 86
e 9 92
e 10 11
e 10 14
e 10 15
e 10 22
e 10 26
e 10 27
e 10 34
e 10 37
e 10 38
e 10 45
e 10 50
e 10 51
e 10 58
e 10 61
e 10 62
e 10 69
e 10 73
e 10 74
e 10 81
e 10 84
e 10 85
e 10 92
e 11 17
e 11 18
e 11 19
e 11 20
e 11 21
e 11 29
e 11 30
e 11 31
e 11 32
e 11 33
e 11 40
e 11 41
e 11 42
e 11 43
e 11 44
e 11 53
e 11 54
e 11 55
e 11 56
e 11 57
e 11 64
e 11 65
e 11 66
e 11 67
e 11 68
e 11 76
e 11 77
e 11 78
e 11 79
e 11 80
e 11 87
e 11 88
e 11 89
e 11 90
e 11 91
e 12 23
e 12 25
e 12 27
e 12 30
e 12 32
e 12 46
e 12 49
e 12 51
e 12 54
e 12 56
e 12 70
e 12 72
e 12 74
e 12 77
e 12 79
e 12 93
e 13 23
e 13 24
e 13 26
e 13 29
e 13 31
e 13 46
e 13 48
e 13 50
e 13 53
e 13 55
e 13 70
e 13 71
e 13 73
e 13 76
e 13 78
e 13 93
e 14 23
e 14 25
e 14 28
e 14 30
e 14 33
e 14 46
e 14 49
e 14 52
e 14 54
e 14 57
e 14 70
e 14 72
e 14 75
e 14 77
e 14 80
e 14 93
e 15 23
e 15 24
e 15 28
e 15 29
e 15 33
e 15 46
e 15 48
e 15 52
e 15 53
e 15 57
e 15 70
e 15 71
e 15 75
e 15 76
e 15 80
e 15 93
e 16 23
e 16 26
e 16 27
e 16 31
e 16 32
e 16 46
e 16 50
e 16 51
e 16 55
e 16 56
e 16 70
e 16 73
e 16 74
e 16 78
e 16 79
e 16 93
e 17 23
e 17 25
e 17 27
e 17 34
e 17 46
e 17 49
e 17 51
e 17 58
e 17 70
e 17 72
e 17 74
e 17 81
e 17 93
e 18 23
e 18 24
e 18 26
e 18 34
e 18 46
e 18 48
e 18 50
e 18 58
e 18 70
e 18 71
e 18 73
e 18 81
e 18 93
e 19 23
e 19 25
e 19 28
e 19 34
e 19 46
e 19 49
e 19 52
e 19 58
e 19 70
e 19 72
e 19 75
e 19 81
e 19 93
e 20 23
e 20 24
e 20 28
e 20 34
e 20 46
e 20 48
e 20 52
e 20 58
e 20 70
e 20 71
e 20 75
e 20 81
e 20 93
e 21 23
e 21 26
e 21 27
e 21 34
e 21 46
e 21 50
e 21 51
e 21 58
e 21 70
e 21 73
e 21 74
e 21 81
e 21 93
e 22 23
e 22 29
e 22 30
e 22 31
e 22 32
e 22 33
e 22 46
e 22 53
e 22 54
e 22 55
e 22 56
e 22 57
e 22 70
e 22 76
e 22 77
e 22 78
e 22 79
e 22 80
e 22 93
e 23 35
e 23 36
e 23 37
e 23 38
e 23 39
e 23 40
e 23 41
e 23 42
e 23 43
e 23 44
e 23 45
e 23 59
e 23 60
e 23 61
e 23 62
e 23 63
e 23 64
e 23 65
e 23 66
e 23 67
e 23 68
e 23 69
e 23 82
e 23 83
e 23 84
e 23 85
e 23 86
e 23 87
e 23 88
e 23 89
e 23 90
e 23 91
e 23 92
e 24 47
e 24 49
e 24 51
e 24 54
e 24 56
e 24 60
e 24 62
e 24 65
e 24 67
e 24 94
e 25 47
e 25 48
e 25 50
e 25 53
e 25 55
e 25 59
e 25 61
e 25 64
e 25 66
e 25 94
e 26 47
e 26 49
e 26 52
e 26 54
e 26 57
e 26 60
e 26 63
e 26 65
e 26 68
e 26 94
e 27 47
e 27 48
e 27 52
e 27 53
e 27 57
e 27 59
e 27 63
e 27 64
e 27 68
e 27 94
e 28 47
e 28 50
e 28 51
e 28 55
e 28 56
e 28 61
e 28 62
e 28 66
e 28 67
e 28 94
e 29 47
e 29 49
e 29 51
e 29 58
e 29 60
e 29 62
e 29 69
e 29 94
e 30 47
e 30 48
e 30 50
e 30 58
e 30 59
e 30 61
e 30 69
e 30 94
e 31 47
e 31 49
e 31 52
e 31 58
e 31 60
e 31 63
e 31 69
e 31 94
e 32 47
e 32 48
e 32 52
e 32 58
e 32 59
e 32 63
e 32 69
e 32 94
e 33 47
e 33 50
e 33 51
e 33 58
e 33 61
e 33 62
e 33 69
e 33 94
e 34 47
e 34 53
e 34 54
e 34 55
e 34 56
e 34 57
e 34 64
e 34 65
e 34 66
e 34 67
e 34 68
e 34 94
e 35 47
e 35 49
e 35 51
e 35 54
e 35 56
e 35 70
e 35 94
e 36 47
e 36 48
e 36 50
e 36 53
e 36 55
e 36 70
e 36 94
e 37 47
e 37 49
e 37 52
e 37 54
e 37 57
e 37 70
e 37 94
e 38 47
e 38 48
e 38 52
e 38 53
e 38 57
e 38 70
e 38 94
e 39 47
e 39 50
e 39 51
e 39 55
e 39 56
e 39 70
e 39 94
e 40 47
e 40 49
e 40 51
e 40 58
e 40 70
e 40 94
e 41 47
e 41 48
e 41 50
e 41 58
e 41 70
e 41 94
e 42 47
e 42 49
e 42 52
e 42 58
e 42 70
e 42 94
e 43 47
e 43 48
e 43 52
e 43 58
e 43 70
e 43 94
e 44 47
e 44 50
e 44 51
e 44 58
e 44 70
e 44 94
e 45 47
e 45 53
e 45 54
e 45 55
e 45 56
e 45 57
e 45 70
e 45 94
e 46 47
e 46 59
e 46 60
e 46 61
e 46 62
e 46 63
e 46 64
e 46 65
e 46 66
e 46 67
e 46 68
e 46 69
e 46 94
e 47 71
e 47 72
e 47 73
e 47 74
e 47 75
e 47 76
e 47 77
e 47 78
e 47 79
e 47 80
e 47 81
e 47 82
e 47 83
e 47 84
e 47 85
e 47 86
e 47 87
e 47 88
e 47 89
e 47 90
e 47 91
e 47 92
e 47 93
e 48 95
e 49 95
e 50 95
e 51 95
e 52 95
e 53 95
e 54 95
e 55 95
e 56 95
e 57 95
e 58 95
e 59 95
e 60 95
e 61 95
e 62 95
e 63 95
e 64 95
e 65 95
e 66 95
e 67 95
e 68 95
e 69 95
e 70 95
e 71 95
e 72 95
e 73 95
e 74 95
e 75 95
e 76 95
e 77 95
e 78 95
e 79 95
e 80 95
e 81 95
e 82 95
e 83 95
e 84 95
e 85 95
e 86 95
e 87 95
e 88 95
e 89 95
e 90 95
e 91 95
e 92 95
e 93 95
e 94 95
